
%    +---------------+
% 10 | | | | | | | | |
% 9  | | | | | | | | |
% 8  | | | | | | | | |
% 7  | | | |4| | | | |
% 6  | | | | | | | | |
% 5  | | | | | | | | |
% 4  | | |3| | | | | |
% 3  |1|1|8| | | |6| |
% 2  |1|1| | |2| |7| |
% 1  | | | | |5| | | |
%    +---------------+
n=8;
m=10;
h=2;
%maxT=45;
boxNumber=8;
boxSideLen = [2, 1, 1, 1, 1, 1, 1, 1];
boxStartX  = [1, 5, 3, 4, 5, 7, 7, 3];
boxStartY  = [2, 2, 4, 7, 1, 3, 2, 3];
